<?xml version = "1.0" standalone="yes"?>
<!-- This file has been generated by DOcplex version 2.23.222  -->
<CPLEXSolution version="1.0">
 <header
   problemName="CVRP"
   objectiveValue="13171.4"
  />
 <variables>
  <variable name="x_0_2" index="1" value="1.00000"/>
  <variable name="x_0_3" index="2" value="1.00000"/>
  <variable name="x_0_6" index="5" value="1.00000"/>
  <variable name="x_0_7" index="6" value="1.00000"/>
  <variable name="x_0_11" index="10" value="1.00000"/>
  <variable name="x_0_13" index="12" value="1.00000"/>
  <variable name="x_0_15" index="14" value="1.00000"/>
  <variable name="x_0_16" index="15" value="1.00000"/>
  <variable name="x_0_17" index="16" value="1.00000"/>
  <variable name="x_0_18" index="17" value="1.00000"/>
  <variable name="x_0_22" index="21" value="1.00000"/>
  <variable name="x_1_14" index="35" value="1.00000"/>
  <variable name="x_2_4" index="47" value="1.00000"/>
  <variable name="x_3_0" index="66" value="1.00000"/>
  <variable name="x_4_0" index="88" value="1.00000"/>
  <variable name="x_5_12" index="121" value="1.00000"/>
  <variable name="x_6_5" index="137" value="1.00000"/>
  <variable name="x_7_0" index="154" value="1.00000"/>
  <variable name="x_8_0" index="176" value="1.00000"/>
  <variable name="x_9_0" index="198" value="1.00000"/>
  <variable name="x_10_1" index="221" value="1.00000"/>
  <variable name="x_11_21" index="262" value="1.00000"/>
  <variable name="x_12_0" index="264" value="1.00000"/>
  <variable name="x_13_19" index="304" value="1.00000"/>
  <variable name="x_14_0" index="308" value="1.00000"/>
  <variable name="x_15_10" index="340" value="1.00000"/>
  <variable name="x_16_9" index="361" value="1.00000"/>
  <variable name="x_17_0" index="374" value="1.00000"/>
  <variable name="x_18_8" index="404" value="1.00000"/>
  <variable name="x_19_20" index="437" value="1.00000"/>
  <variable name="x_20_0" index="440" value="1.00000"/>
  <variable name="x_21_0" index="462" value="1.00000"/>
  <variable name="x_22_0" index="484" value="1.00000"/>
  <variable name="u_1" index="506" value="38.00000"/>
  <variable name="u_2" index="507" value="33.00000"/>
  <variable name="u_3" index="508" value="29.00000"/>
  <variable name="u_4" index="509" value="43.00000"/>
  <variable name="u_5" index="510" value="41.00000"/>
  <variable name="u_6" index="511" value="17.00000"/>
  <variable name="u_7" index="512" value="43.00000"/>
  <variable name="u_8" index="513" value="43.00000"/>
  <variable name="u_9" index="514" value="43.00000"/>
  <variable name="u_10" index="515" value="24.00000"/>
  <variable name="u_11" index="516" value="6.00000"/>
  <variable name="u_12" index="517" value="42.00000"/>
  <variable name="u_13" index="518" value="6.00000"/>
  <variable name="u_14" index="519" value="43.00000"/>
  <variable name="u_15" index="520" value="14.00000"/>
  <variable name="u_16" index="521" value="2.00000"/>
  <variable name="u_17" index="522" value="41.00000"/>
  <variable name="u_18" index="523" value="37.00000"/>
  <variable name="u_19" index="524" value="27.00000"/>
  <variable name="u_20" index="525" value="43.00000"/>
  <variable name="u_21" index="526" value="41.00000"/>
  <variable name="u_22" index="527" value="34.00000"/>
 </variables>
</CPLEXSolution>
